proyfinal/src/viki/013/andrea/andrea-localstore/experimentInOfficeAgust.take6/worker_8/4d6d9db5-e0e2-4daf-898e-f4821de08bdb.als.cnf.out
Reading from standard input... Use '--help' for help.
============================[ Problem Statistics ]=============================
|                                                                             |
|  Number of variables:         87638                                         |
|  Number of clauses:          161767                                         |
|  Parse time:                   0.03 s                                       |
|                                                                             |
============================[ Search Statistics ]==============================
| Conflicts |          ORIGINAL         |          LEARNT          | Progress |
|           |    Vars  Clauses Literals |    Limit  Clauses Lit/Cl |          |
===============================================================================
|       100 |   61872   103528   258204 |    37960      100      6 | 29.400 % |
|       250 |   51643   102842   256537 |    41756      176     31 | 41.072 % |
|       475 |   51567    73761   185154 |    45931      387     33 | 41.159 % |
|       812 |   51567    73694   184995 |    50525      724     31 | 41.159 % |
|      1318 |   51512    73406   184317 |    55577     1228     44 | 41.222 % |
|      2077 |   51512    73406   184317 |    61135     1987     46 | 41.222 % |
|      3216 |   51404    72972   183263 |    67248     3115     49 | 41.345 % |
|      4924 |   51300    72502   182117 |    73973     4632     46 | 41.464 % |
|      7486 |   50946    71042   178596 |    81371     7152     48 | 41.868 % |
|     11330 |   50889    70711   177813 |    89508    10980     46 | 41.933 % |
===============================================================================
restarts              : 62
conflicts             : 14713          (9738 /sec)
decisions             : 42418          (0.00 % random) (28075 /sec)
propagations          : 17824834       (11797572 /sec)
conflict literals     : 618740         (46.42 % deleted)
Memory used           : 25.12 MB
CPU time              : 1.51089 s

UNSATISFIABLE
